
c turning on binary mode checking

c parsing input formula with 5892 variables and 25890 clauses

c finished parsing, read 15488 bytes from proof file

c detected empty clause; start verification via backward checking

c 1431 of 25890 clauses in core                            

c 55 of 3717 lemmas in core using 16995 resolution steps

c 0 RAT lemmas in core; 17 redundant literals in core lemmas

s VERIFIED

c verification time: 0.060 seconds
